297729
297729
297729
297729
294273
294273
294273
294273
294273
289697
289697
289697
289697
286301
286301
280182
280182
280182
280182
280182
280182
276238
276238
276238
276238
274392
274392
274392
274392
274392
274392
274392
273479
273479
268989
266105
266105
266105
266105
266105
266105
266105
262707
262707
262707
262707
262707
262707
262707
262707
262707
262707
261367
261367
260207
259941
259306
259306
257952
257952
256864
256495
256495
256495
256495
256186
256186
256186
254802
254802
254802
254802
254802
254802
254802
254802
254802
254802
254802
252688
252688
252688
252688
252688
252688
251970
251070
251070
251070
246327
246327
246327
246327
246327
246327
246327
246327
246075
246075
246075
